# Ba8 Ti8 O16
1.000000
      8.03580666        0.00000000        0.00000000
      0.00000000        8.03581047        0.00000000
      0.00000000        0.00000000        8.06989574
 Ba  Ti  O
     8       8      16
Cartesian
      0.00000000        0.00000000        0.00000000
      4.01790333        0.00000000        0.00000000
      0.00000000        4.01790524        0.00000000
      4.01790333        4.01790524        0.00000000
      0.00000000        0.00000000        4.03494787
      4.01790333        0.00000000        4.03494787
      0.00000000        4.01790524        4.03494787
      4.01790333        4.01790524        4.03494787
      2.00895166        2.00895262        2.04975358
      6.02685499        2.00895262        2.04975358
      2.00895166        6.02685785        2.04975358
      6.02685499        6.02685785        2.04975358
      2.00895166        2.00895262        6.08470146
      6.02685499        2.00895262        6.08470146
      2.00895166        6.02685785        6.08470146
      6.02685499        6.02685785        6.08470146
      2.00895166        2.00895262        0.09280380
      2.00895166        0.00000000        2.04168355
      6.02685499        2.00895262        0.09280380
      6.02685499        0.00000000        2.04168355
      2.00895166        6.02685785        0.09280380
      2.00895166        4.01790524        2.04168355
      6.02685499        6.02685785        0.09280380
      6.02685499        4.01790524        2.04168355
      2.00895166        2.00895262        4.12775168
      2.00895166        0.00000000        6.07663166
      6.02685499        2.00895262        4.12775168
      6.02685499        0.00000000        6.07663166
      2.00895166        6.02685785        4.12775168
      2.00895166        4.01790524        6.07663166
      6.02685499        6.02685785        4.12775168
      6.02685499        4.01790524        6.07663166
