#ALGO = Fast
#EDIFF = 0.001
ENCUT = 700
#IBRION = 2
IBRION = -1
#ISIF = 8
#NSW = 99
LWAVE = .FALSE.
#ISMEAR = 0
# ISPIN = 2
ISPIN = 1
LASPH = True
# LMAXMIX = 4
LREAL = Auto # Recommended for more than 30 atoms
# MAGMOM = 97*0.6
NELM = 150

PREC = Accurate
#NBANDS = 210
#ISMEAR = 1
#SIGMA = 0.2
ISMEAR = 0
SIGMA = 0.05

